proyfinal/src/viki/013/experimentInOfficeAgust.take6.output/2a6b63dd-83fc-4e6d-995a-9263acd9c71c.als.dat
{'cnf.clauses': '118081',
 'cnf.totvars': '69608',
 'conflict literals': '94',
 'conflicts': '30',
 'decisions': '12841',
 'memused.mb': '16.24',
 'outcome': 'UNSAT',
 'propagations': '47266',
 'restarts': '1',
 'solver.msecs': 29,
 'task.msecs': 73}
