proyfinal/src/viki/013/experimentInOfficeAgust.take6.output/2a6b63dd-83fc-4e6d-995a-9263acd9c71c.als.out
Reading from standard input... Use '--help' for help.
============================[ Problem Statistics ]=============================
|                                                                             |
|  Number of variables:         69608                                         |
|  Number of clauses:          118081                                         |
|  Parse time:                   0.02 s                                       |
|                                                                             |
============================[ Search Statistics ]==============================
| Conflicts |          ORIGINAL         |          LEARNT          | Progress |
|           |    Vars  Clauses Literals |    Limit  Clauses Lit/Cl |          |
===============================================================================
===============================================================================
restarts              : 1
conflicts             : 30             (1022 /sec)
decisions             : 12841          (0.00 % random) (437513 /sec)
propagations          : 47266          (1610426 /sec)
conflict literals     : 94             (0.00 % deleted)
Memory used           : 16.24 MB
CPU time              : 0.02935 s

UNSATISFIABLE
